(declare-fun v1 () (_ BitVec 1))
(declare-fun v7 () (_ BitVec 7))
(assert
(let (($e6 (_ bv2 2)))
(let (($e42 (_ bv31 5)))
(let (($e46 (_ bv0 6)))
(let (($e374                    $e42      ))
(let (($e375 (concat $e374 $e6)))
(let (($e518                  v1 ))
(let (($e519 (concat $e46 $e518)))
(let (($e520              v7 ))
(let (($e521               $e375             ))
(let (($e522 (bvand        $e521         $e520 )))
(let (($e523 (bvand $e522 $e519)))
(let (($e1706                v7 ))
(let (($e1707               $e1706       ))
(let (($e1708              $e1707 ))
(let (($e1709 (   extract      $e1708)))
(let (($e1710              $e1709          ))
(let (($e1711             $e1710 ))
              (ite        $e1711  $e522 $e523)
                                                                                                                                                                                                                                                                                                                                                                                                                                                                                                                                                                                                                                                                                                                                                                                                                                                                                                                                                                                                                                                                                                                                                                                                                                                                                                                                                                                                                                                                                                                                                                                                                                                                                                                                                                                                                                                                                                                                                                                                                                                                                                                                                                                                                                                                                                                                                                                                                                                                                                                                                                                                                                                                                                                                                                                                                                                                                                                                                                                                                                                                                                                                                                                                                                                                                                                                                                                             ))))))                                                                                                                                                                                                                                                                                                                                                                                                                                                                                                                                                                                                                                                                                                                                                                                                                                                                                                                                                                                                                                                                                                                                                                                                                              ))))))                                                                                                                                              ))                                                                                                                                                                                                                                                                                                                    )   )                                   )     )
